41341.35,66.87,81.1
50335.04,54.92,66.61
45526.32,60.73,73.64
49908.56,55.39,67.18
43189.96,64.01,77.62
50215.09,55.06,66.77
50107.76,55.17,66.91
47479.99,58.23,70.61
39466.21,70.05,84.95
46520.43,59.43,72.07
43258.85,63.91,77.5
52761.82,52.4,63.54
44876.93,61.6,74.71
49478.64,55.87,67.76
45784.59,60.38,73.23
50325.92,54.93,66.62
46367.51,59.62,72.31
43556.99,63.47,76.97
50814.59,54.41,65.98
46338.54,59.66,72.35
